100 486
1 6 -1
1 35 1
1 36 1
1 40 -1
1 42 1
1 59 -1
1 70 -1
1 76 -1
1 78 -1
1 83 -1
1 86 -1
1 94 1
2 7 -1
2 9 1
2 12 1
2 32 -1
2 39 1
2 42 1
2 47 1
2 60 1
2 73 1
2 74 1
2 86 1
3 5 -1
3 22 1
3 24 1
3 28 1
3 45 -1
3 50 -1
3 70 1
3 85 -1
3 99 1
4 7 1
4 11 -1
4 24 1
4 30 -1
4 88 -1
4 92 1
4 96 -1
4 99 1
5 8 -1
5 29 -1
5 33 1
5 34 -1
5 38 -1
5 41 1
5 72 1
5 76 -1
5 83 1
6 38 1
6 54 1
6 73 -1
6 78 -1
6 82 -1
6 83 1
6 97 1
7 9 -1
7 33 -1
7 57 1
7 70 1
7 83 1
8 9 -1
8 28 1
8 43 -1
8 55 -1
8 57 1
8 65 1
8 71 1
8 83 -1
8 88 1
8 98 -1
9 33 -1
9 35 -1
9 37 -1
9 49 1
9 75 -1
9 84 1
9 87 1
10 15 1
10 25 -1
10 32 1
10 34 -1
10 41 -1
10 50 -1
10 69 -1
10 73 -1
10 75 1
10 76 1
11 36 1
11 38 -1
11 41 -1
11 44 1
11 51 -1
11 66 1
11 67 -1
11 76 -1
11 79 1
11 96 1
12 18 1
12 19 1
12 35 -1
12 81 1
13 14 -1
13 58 -1
13 60 -1
13 61 -1
13 67 -1
13 76 -1
14 16 -1
14 28 1
14 37 1
14 46 -1
14 47 -1
14 80 -1
14 81 -1
14 83 -1
15 28 -1
15 45 1
15 64 1
15 66 1
15 77 -1
15 78 1
15 79 1
15 91 1
16 27 1
16 32 1
16 38 1
16 44 -1
16 46 -1
16 54 1
16 58 1
16 74 1
16 83 1
16 84 1
16 87 1
17 19 -1
17 47 -1
17 52 1
17 64 1
17 67 1
17 71 1
17 95 1
18 34 -1
18 36 -1
18 43 1
18 64 -1
18 92 1
19 28 1
19 29 1
19 44 -1
19 62 -1
19 64 1
19 74 -1
19 85 1
19 89 -1
19 98 -1
20 27 1
20 36 1
20 42 1
20 66 -1
20 71 -1
20 73 1
20 74 1
20 77 -1
20 79 1
20 81 1
20 92 -1
20 98 1
21 25 1
21 32 -1
21 71 -1
21 84 -1
21 92 -1
21 97 1
22 24 -1
22 25 -1
22 40 1
22 85 1
22 88 1
22 91 1
23 24 1
23 35 -1
23 36 1
23 44 -1
23 45 1
23 46 1
23 48 -1
23 56 1
23 58 -1
23 59 -1
23 67 1
23 70 -1
23 99 -1
24 26 -1
24 41 1
24 50 1
24 54 1
24 57 -1
24 62 1
24 71 -1
24 88 -1
25 44 1
25 49 -1
25 53 1
25 61 1
25 65 1
25 73 -1
25 75 1
25 82 -1
25 97 -1
25 99 1
26 40 -1
26 43 1
26 68 -1
26 74 1
26 100 1
27 35 1
27 41 1
27 49 1
27 58 -1
27 61 -1
27 64 -1
27 79 -1
27 81 1
27 99 -1
28 41 1
28 45 1
28 48 1
28 61 1
28 70 1
28 71 1
28 72 -1
28 73 1
28 80 1
28 81 -1
28 92 -1
28 96 -1
29 39 1
29 61 1
29 80 -1
29 84 1
29 99 -1
29 100 -1
30 37 1
30 39 1
30 70 -1
30 79 -1
31 35 1
31 37 -1
31 47 1
31 54 1
31 66 -1
31 72 1
31 77 1
31 84 -1
32 38 -1
32 44 1
32 47 -1
32 50 1
32 55 -1
32 60 1
32 64 1
32 75 -1
32 97 -1
33 36 -1
33 50 1
33 51 -1
33 54 1
33 66 1
33 71 1
33 78 -1
33 81 -1
33 88 -1
34 45 -1
34 48 -1
34 53 -1
34 71 -1
34 73 -1
34 82 -1
34 89 -1
34 95 1
35 41 1
35 51 1
35 58 -1
35 66 -1
36 54 -1
36 63 1
36 68 -1
36 75 -1
36 80 -1
36 89 -1
37 59 1
37 74 -1
37 75 1
37 90 1
37 96 1
37 97 -1
38 40 -1
38 64 1
38 67 1
38 81 -1
39 40 1
39 46 -1
39 51 -1
39 57 1
39 88 1
39 92 -1
40 57 1
40 64 -1
40 83 -1
40 84 1
41 42 -1
41 53 -1
41 55 1
41 57 -1
41 68 1
41 79 -1
41 95 1
42 61 1
42 77 1
42 92 -1
42 93 1
42 96 1
43 44 -1
43 52 1
43 60 1
43 72 1
43 97 -1
44 46 1
44 52 1
44 58 -1
44 72 1
44 100 1
45 55 -1
45 60 -1
45 62 1
45 98 1
46 66 1
46 69 1
46 76 1
46 90 1
46 92 -1
46 94 1
46 95 -1
46 97 -1
47 52 1
47 58 -1
47 59 1
47 77 1
47 78 -1
47 88 -1
47 94 -1
48 74 1
48 80 1
48 83 1
48 91 1
48 95 -1
48 98 1
49 56 1
49 71 1
49 74 -1
49 75 1
49 94 -1
49 95 -1
49 99 -1
50 52 -1
51 57 -1
51 67 1
51 73 -1
51 80 1
51 81 -1
51 82 -1
51 84 -1
51 92 1
51 94 1
52 62 -1
52 71 1
52 75 -1
52 93 1
52 95 1
52 97 -1
53 79 1
53 96 1
53 99 -1
54 57 -1
54 66 1
54 70 1
54 72 -1
54 82 1
54 87 1
54 93 1
54 94 1
54 100 -1
55 57 -1
55 71 1
55 86 1
55 98 -1
56 57 1
56 87 1
56 90 1
57 58 1
57 84 1
57 90 -1
57 93 -1
57 95 1
57 96 1
58 76 1
58 84 1
58 87 1
58 92 -1
58 98 1
59 73 -1
59 80 1
59 88 1
59 90 1
60 61 -1
60 65 -1
60 69 -1
60 73 1
60 78 -1
60 80 -1
60 82 1
60 88 1
60 91 -1
60 95 -1
61 67 1
61 92 1
62 67 -1
62 70 1
62 78 -1
62 84 -1
62 88 -1
62 95 -1
62 97 -1
63 73 -1
63 74 1
63 83 1
63 92 -1
64 75 1
64 76 1
64 87 -1
64 98 1
66 69 -1
66 71 1
67 70 1
67 78 1
67 91 1
68 77 1
68 98 1
69 81 1
69 83 -1
69 85 -1
69 86 1
69 100 1
70 80 -1
71 86 -1
71 87 -1
71 93 -1
71 97 1
72 75 1
73 78 1
73 79 1
74 95 -1
74 97 1
75 80 -1
77 82 -1
78 89 -1
80 86 1
80 88 1
80 90 1
80 96 1
81 96 -1
83 90 -1
83 91 -1
83 96 1
84 86 1
84 89 -1
84 93 -1
85 94 -1
86 87 1
87 94 -1
88 90 -1
89 99 1
90 92 1
92 100 -1
94 97 1
